Academic license - for non-commercial use only - expires 2022-11-10
Using license file /home/benedond/Apps/gurobi/gurobi950/gurobi.lic
Using gurobi.env file
Set parameter Threads to value 1
Changed value of parameter TimeLimit to 1200.0
   Prev: inf  Min: 0.0  Max: inf  Default: inf
Gurobi Optimizer version 9.1.2 build v9.1.2rc0 (linux64)
Thread count: 2 physical cores, 4 logical processors, using up to 1 threads
Optimize a model with 1002 rows, 901 columns and 4267 nonzeros
Model fingerprint: 0x42c9ed5a
Variable types: 40 continuous, 861 integer (861 binary)
Coefficient statistics:
  Matrix range     [2e-01, 4e+02]
  Objective range  [2e-02, 5e-01]
  Bounds range     [1e+00, 1e+00]
  RHS range        [1e+00, 8e+02]
Presolve removed 146 rows and 82 columns
Presolve time: 0.02s
Presolved: 856 rows, 819 columns, 3751 nonzeros
Variable types: 39 continuous, 780 integer (780 binary)

Root relaxation: objective 2.516804e+00, 1043 iterations, 0.01 seconds

    Nodes    |    Current Node    |     Objective Bounds      |     Work
 Expl Unexpl |  Obj  Depth IntInf | Incumbent    BestBd   Gap | It/Node Time

     0     0    2.51680    0   80          -    2.51680      -     -    0s
     0     0    2.65539    0   69          -    2.65539      -     -    0s
H    0     0                       4.3802073    2.65539  39.4%     -    0s
H    0     0                       4.1021586    2.65539  35.3%     -    0s
     0     0    2.72055    0   90    4.10216    2.72055  33.7%     -    0s
     0     0    2.82109    0  104    4.10216    2.82109  31.2%     -    0s
H    0     0                       4.0447439    2.82109  30.3%     -    0s
     0     0    2.84572    0  105    4.04474    2.84572  29.6%     -    0s
     0     0    2.91213    0  120    4.04474    2.91213  28.0%     -    0s
H    0     0                       3.9566342    2.91213  26.4%     -    0s
     0     0    2.94161    0  119    3.95663    2.94161  25.7%     -    0s
     0     0    2.95057    0  103    3.95663    2.95057  25.4%     -    0s
     0     0    2.95588    0  122    3.95663    2.95588  25.3%     -    0s
     0     0    2.95707    0  132    3.95663    2.95707  25.3%     -    0s
     0     0    2.95707    0  130    3.95663    2.95707  25.3%     -    0s
     0     0    2.98725    0  111    3.95663    2.98725  24.5%     -    0s
     0     0    3.00447    0  126    3.95663    3.00447  24.1%     -    0s
     0     0    3.01146    0  113    3.95663    3.01146  23.9%     -    0s
     0     0    3.01665    0  130    3.95663    3.01665  23.8%     -    0s
     0     0    3.01693    0  121    3.95663    3.01693  23.8%     -    0s
     0     0    3.02545    0  118    3.95663    3.02545  23.5%     -    0s
     0     0    3.02613    0  133    3.95663    3.02613  23.5%     -    0s
     0     0    3.02648    0  145    3.95663    3.02648  23.5%     -    0s
     0     0    3.02666    0  145    3.95663    3.02666  23.5%     -    0s
     0     0    3.04132    0  104    3.95663    3.04132  23.1%     -    0s
     0     0    3.04345    0  104    3.95663    3.04345  23.1%     -    0s
     0     0    3.04345    0  104    3.95663    3.04345  23.1%     -    0s
     0     0    3.05053    0  113    3.95663    3.05053  22.9%     -    0s
H    0     0                       3.8858781    3.05053  21.5%     -    0s
     0     0    3.05340    0  118    3.88588    3.05340  21.4%     -    0s
     0     0    3.05345    0  119    3.88588    3.05345  21.4%     -    0s
     0     0    3.05716    0  148    3.88588    3.05716  21.3%     -    0s
     0     0    3.05793    0  122    3.88588    3.05793  21.3%     -    0s
     0     0    3.05892    0  147    3.88588    3.05892  21.3%     -    0s
     0     0    3.05904    0  146    3.88588    3.05904  21.3%     -    0s
     0     0    3.06106    0  123    3.88588    3.06106  21.2%     -    0s
     0     0    3.06410    0  124    3.88588    3.06410  21.1%     -    0s
     0     0    3.06436    0  125    3.88588    3.06436  21.1%     -    0s
     0     0    3.07419    0  144    3.88588    3.07419  20.9%     -    0s
H    0     0                       3.7663415    3.07419  18.4%     -    0s
     0     0    3.07643    0  136    3.76634    3.07643  18.3%     -    0s
     0     0    3.07762    0  137    3.76634    3.07762  18.3%     -    0s
     0     0    3.07826    0  139    3.76634    3.07826  18.3%     -    0s
     0     0    3.07891    0  161    3.76634    3.07891  18.3%     -    0s
     0     0    3.07891    0  164    3.76634    3.07891  18.3%     -    0s
     0     0    3.08291    0  121    3.76634    3.08291  18.1%     -    0s
     0     0    3.08347    0  145    3.76634    3.08347  18.1%     -    0s
     0     0    3.08523    0  145    3.76634    3.08523  18.1%     -    0s
     0     0    3.08565    0  160    3.76634    3.08565  18.1%     -    0s
     0     0    3.08702    0  136    3.76634    3.08702  18.0%     -    0s
     0     0    3.08702    0  134    3.76634    3.08702  18.0%     -    0s
H    0     0                       3.7182317    3.08702  17.0%     -    0s
H    0     0                       3.5175122    3.08702  12.2%     -    0s
H    0     0                       3.4969024    3.08702  11.7%     -    0s
     0     2    3.08707    0  134    3.49690    3.08707  11.7%     -    0s
H  582   288                       3.4666951    3.23847  6.58%  56.7    3s
H  618   263                       3.4500122    3.23847  6.13%  57.4    3s
H  703   247                       3.4496098    3.25037  5.78%  56.7    4s
   928   208    3.41468   16   52    3.44961    3.32835  3.52%  54.4    5s
H 1174    90                       3.4485610    3.39207  1.64%  51.9    5s
* 1195    62              29       3.4388537    3.39688  1.22%  51.8    5s

Cutting planes:
  Cover: 10
  Implied bound: 4
  Clique: 1
  MIR: 91
  StrongCG: 2
  Flow cover: 128
  RLT: 6
  Relax-and-lift: 63

Explored 1299 nodes (69585 simplex iterations) in 5.87 seconds
Thread count was 1 (of 4 available processors)

Solution count 10: 3.43885 3.44856 3.44961 ... 3.88588

Optimal solution found (tolerance 1.00e-04)
Best objective 3.438853657627e+00, best bound 3.438853657627e+00, gap 0.0000%
